
n_res = 4;
rcap = [26, 27, 296, 271];
rtype = [1, 1, 2, 2];
n_tasks = 100;
modes =  [{1, 2, 3}, {4, 5, 6}, {7, 8, 9}, {10, 11, 12}, {13, 14, 15}, {16, 17, 18}, {19, 20, 21}, {22, 23, 24}, {25, 26, 27}, {28, 29, 30}, {31, 32, 33}, {34, 35, 36}, {37, 38, 39}, {40, 41, 42}, {43, 44, 45}, {46, 47, 48}, {49, 50, 51}, {52, 53, 54}, {55, 56, 57}, {58, 59, 60}, {61, 62, 63}, {64, 65, 66}, {67, 68, 69}, {70, 71, 72}, {73, 74, 75}, {76, 77, 78}, {79, 80, 81}, {82, 83, 84}, {85, 86, 87}, {88, 89, 90}, {91, 92, 93}, {94, 95, 96}, {97, 98, 99}, {100, 101, 102}, {103, 104, 105}, {106, 107, 108}, {109, 110, 111}, {112, 113, 114}, {115, 116, 117}, {118, 119, 120}, {121, 122, 123}, {124, 125, 126}, {127, 128, 129}, {130, 131, 132}, {133, 134, 135}, {136, 137, 138}, {139, 140, 141}, {142, 143, 144}, {145, 146, 147}, {148, 149, 150}, {151, 152, 153}, {154, 155, 156}, {157, 158, 159}, {160, 161, 162}, {163, 164, 165}, {166, 167, 168}, {169, 170, 171}, {172, 173, 174}, {175, 176, 177}, {178, 179, 180}, {181, 182, 183}, {184, 185, 186}, {187, 188, 189}, {190, 191, 192}, {193, 194, 195}, {196, 197, 198}, {199, 200, 201}, {202, 203, 204}, {205, 206, 207}, {208, 209, 210}, {211, 212, 213}, {214, 215, 216}, {217, 218, 219}, {220, 221, 222}, {223, 224, 225}, {226, 227, 228}, {229, 230, 231}, {232, 233, 234}, {235, 236, 237}, {238, 239, 240}, {241, 242, 243}, {244, 245, 246}, {247, 248, 249}, {250, 251, 252}, {253, 254, 255}, {256, 257, 258}, {259, 260, 261}, {262, 263, 264}, {265, 266, 267}, {268, 269, 270}, {271, 272, 273}, {274, 275, 276}, {277, 278, 279}, {280, 281, 282}, {283, 284, 285}, {286, 287, 288}, {289, 290, 291}, {292, 293, 294}, {295, 296, 297}, {298, 299, 300}];
succ =  [{48, 43, 41, 37, 36, 35, 34, 32, 30, 29, 28, 4}, {57, 46, 43, 41, 37, 35, 34, 33, 29, 28, 27, 25, 22}, {70, 48, 43, 41, 33, 32, 28, 27, 25, 23, 11}, {70, 54, 49, 46, 44, 39, 33, 27, 26, 23}, {70, 54, 49, 48, 46, 39, 37, 35, 27, 26}, {70, 57, 54, 48, 46, 45, 41, 39, 38, 35, 32, 28}, {70, 62, 54, 52, 49, 45, 44, 40, 39, 38, 37, 33, 32}, {70, 61, 55, 54, 50, 48, 41, 40, 38, 37, 35, 31}, {54, 53, 50, 49, 44, 42, 41, 37, 35, 32, 30}, {70, 57, 54, 52, 42, 39, 38, 36, 28, 27}, {57, 49, 44, 42, 40, 37, 30, 29}, {70, 61, 59, 54, 49, 45, 41, 35, 33, 27}, {62, 54, 52, 46, 42, 39, 38, 28}, {100, 74, 70, 62, 57, 56, 53, 49, 48, 43, 40, 39, 32}, {61, 55, 53, 52, 49, 44, 42, 41, 40, 38, 36}, {100, 70, 65, 62, 61, 57, 56, 54, 51, 46, 44, 42, 40, 37}, {100, 74, 70, 67, 65, 62, 59, 58, 57, 56, 55, 52, 47, 46, 40, 39}, {74, 62, 61, 59, 58, 57, 52, 50, 47, 40, 38, 33}, {74, 67, 64, 62, 61, 59, 54, 53, 52, 51, 49, 47, 44, 38}, {100, 74, 73, 62, 59, 56, 54, 51, 49, 42, 32}, {74, 70, 67, 66, 64, 62, 59, 58, 56, 55, 47, 45, 39}, {70, 66, 64, 59, 55, 53, 49, 48, 47, 44, 39}, {74, 67, 62, 61, 59, 55, 52, 47, 40, 38}, {74, 59, 55, 52, 42, 39, 38}, {74, 65, 64, 59, 58, 54, 52, 45, 39}, {62, 58, 57, 52, 45, 42, 38}, {82, 74, 67, 65, 62, 58, 56, 55, 53, 47, 40}, {74, 67, 59, 58, 56, 55, 53, 49, 47, 40}, {69, 67, 63, 62, 59, 58, 54, 53, 52, 38}, {100, 73, 66, 64, 58, 56, 55, 52, 39}, {68, 59, 56, 53, 51, 49, 42}, {99, 82, 71, 67, 66, 65, 64, 63, 61, 58, 55, 47}, {100, 69, 68, 60, 56, 53, 42}, {100, 74, 68, 61, 59, 56, 42}, {100, 82, 80, 71, 68, 67, 66, 64, 63, 62, 60, 52}, {100, 99, 74, 73, 59, 56, 51, 47}, {99, 81, 79, 74, 72, 67, 66, 59, 47}, {100, 99, 96, 94, 82, 80, 78, 77, 71, 68, 66, 65, 56}, {99, 98, 81, 80, 78, 75, 71, 68, 61, 60, 51}, {99, 98, 96, 80, 79, 77, 73, 72, 69, 66, 64, 63, 60}, {99, 98, 97, 93, 75, 73, 72, 64, 62, 51}, {99, 98, 97, 95, 94, 82, 80, 79, 75, 72, 71, 67, 64, 63}, {99, 97, 95, 94, 93, 81, 79, 73, 72, 69, 68, 66, 63, 59}, {82, 81, 80, 78, 77, 73, 72, 71, 69, 68, 60, 58}, {100, 92, 82, 80, 78, 75, 69, 68, 63, 53}, {99, 97, 81, 80, 79, 75, 72, 68, 53}, {96, 91, 80, 78, 77, 69, 68, 60}, {99, 95, 90, 80, 78, 75, 72, 65, 63}, {99, 91, 90, 82, 81, 75, 71, 60}, {99, 96, 93, 92, 90, 89, 80, 79, 78, 77, 75, 68}, {96, 94, 92, 82, 79, 77, 69, 63}, {99, 98, 97, 96, 95, 94, 91, 88, 87, 79, 77, 76, 72}, {96, 95, 94, 91, 90, 88, 86, 77, 73, 71}, {96, 90, 85, 83, 82, 78, 60}, {95, 94, 92, 91, 90, 89, 88, 87, 86, 80, 77, 75}, {95, 93, 92, 91, 90, 88, 87, 79, 76, 75, 72}, {95, 94, 93, 92, 91, 90, 89, 86, 83, 68}, {98, 97, 96, 92, 91, 87, 86, 85, 84, 83}, {98, 91, 89, 88, 87, 83, 78, 77}, {97, 95, 94, 93, 92, 89, 88, 87, 84}, {95, 93, 91, 90, 87, 86, 83, 77}, {94, 92, 90, 89, 87, 85, 84, 83}, {91, 88, 87, 86, 84, 83, 76}, {91, 90, 89, 85, 84, 81, 78}, {98, 97, 85, 84, 81, 79}, {92, 88, 86, 76, 75}, {96, 93, 92, 89, 85}, {88, 87, 84, 76}, {90, 89, 87, 83}, {98, 87, 86, 85}, {93, 89, 76}, {86, 84, 83}, {87, 85, 83}, {86, 84, 83}, {85, 83}, {85}, {84}, {86}, {83}, {83}, {86}, {84}, {}, {}, {}, {}, {}, {}, {}, {}, {}, {}, {}, {}, {}, {}, {}, {}, {}, {}];
n_opt = 300;
dur = [2, 2, 9, 2, 4, 9, 6, 6, 9, 4, 5, 5, 1, 3, 7, 1, 5, 10, 2, 4, 5, 2, 7, 8, 4, 8, 9, 3, 6, 10, 1, 5, 10, 1, 1, 8, 3, 7, 7, 1, 2, 7, 2, 6, 6, 3, 5, 7, 7, 7, 8, 2, 3, 8, 3, 6, 8, 6, 7, 10, 1, 4, 6, 8, 9, 10, 6, 10, 10, 3, 4, 10, 1, 6, 9, 2, 10, 10, 2, 3, 10, 3, 3, 9, 4, 8, 10, 5, 6, 7, 5, 7, 8, 1, 5, 10, 2, 7, 8, 6, 9, 10, 6, 9, 10, 2, 3, 9, 3, 6, 10, 5, 5, 6, 4, 8, 10, 6, 7, 9, 7, 9, 10, 5, 7, 8, 5, 5, 9, 1, 2, 5, 4, 6, 9, 5, 6, 9, 1, 3, 10, 6, 8, 9, 6, 6, 7, 3, 6, 8, 5, 5, 7, 7, 7, 8, 1, 3, 6, 1, 3, 10, 3, 8, 10, 2, 3, 9, 2, 5, 7, 4, 8, 10, 1, 2, 6, 7, 8, 9, 1, 3, 6, 2, 7, 8, 4, 6, 7, 2, 4, 7, 2, 3, 10, 3, 7, 7, 1, 3, 7, 3, 4, 7, 5, 8, 9, 2, 9, 9, 6, 7, 9, 1, 4, 8, 2, 4, 9, 4, 5, 6, 1, 1, 7, 3, 7, 10, 6, 7, 9, 4, 5, 10, 1, 4, 4, 7, 7, 8, 1, 8, 9, 4, 8, 10, 3, 7, 10, 1, 2, 8, 4, 8, 8, 2, 4, 8, 6, 10, 10, 4, 4, 8, 1, 2, 9, 1, 1, 6, 6, 8, 10, 5, 6, 9, 1, 1, 10, 3, 6, 10, 2, 8, 9, 2, 4, 10, 1, 7, 7, 1, 1, 8, 2, 8, 9, 2, 3, 4];
rreq = [|5, 4, 0, 2, 1, 1, 0, 2, 2, 0, 2, 0, 0, 0, 1, 1, 1, 1, 3, 0, 0, 0, 0, 2, 0, 3, 0, 0, 0, 0, 0, 0, 2, 5, 0, 0, 4, 4, 4, 0, 1, 0, 0, 0, 1, 5, 0, 0, 0, 4, 3, 0, 0, 0, 1, 1, 0, 5, 0, 0, 1, 0, 1, 2, 0, 0, 0, 3, 0, 0, 0, 2, 0, 1, 1, 0, 0, 0, 0, 0, 2, 4, 0, 3, 1, 1, 0, 3, 0, 0, 4, 0, 0, 5, 0, 4, 0, 0, 5, 0, 4, 4, 1, 0, 1, 2, 1, 0, 4, 0, 2, 0, 0, 0, 0, 2, 2, 2, 0, 0, 0, 4, 0, 3, 3, 3, 0, 4, 0, 2, 0, 2, 0, 0, 0, 0, 0, 0, 5, 5, 0, 3, 0, 0, 0, 1, 1, 3, 2, 1, 3, 2, 2, 0, 4, 0, 0, 2, 2, 0, 0, 2, 2, 2, 1, 0, 4, 4, 4, 0, 0, 2, 2, 2, 0, 2, 2, 4, 3, 3, 4, 4, 4, 4, 0, 2, 3, 0, 0, 0, 0, 1, 0, 0, 0, 3, 0, 2, 1, 0, 1, 4, 3, 2, 5, 5, 5, 0, 0, 3, 0, 0, 0, 4, 4, 4, 3, 3, 2, 5, 5, 0, 0, 0, 3, 0, 0, 3, 5, 0, 3, 4, 0, 4, 0, 0, 3, 1, 0, 0, 3, 3, 0, 2, 0, 2, 0, 3, 0, 3, 2, 0, 5, 0, 3, 0, 4, 4, 0, 5, 5, 4, 0, 1, 0, 0, 3, 0, 4, 0, 0, 0, 0, 0, 0, 2, 4, 3, 1, 0, 2, 1, 0, 0, 3, 0, 0, 1, 5, 4, 0, 0, 4, 4, 0, 3, 3, 5, 5, 5
 |0, 0, 2, 0, 0, 0, 4, 0, 0, 3, 0, 3, 2, 1, 0, 0, 0, 0, 0, 2, 2, 4, 4, 0, 4, 0, 4, 5, 4, 2, 3, 2, 0, 0, 4, 4, 0, 0, 0, 2, 0, 2, 2, 1, 0, 0, 2, 2, 3, 0, 0, 2, 2, 1, 0, 0, 1, 0, 4, 4, 0, 3, 0, 0, 3, 2, 4, 0, 3, 3, 3, 0, 4, 0, 0, 4, 3, 3, 4, 3, 0, 0, 3, 0, 0, 0, 1, 0, 1, 1, 0, 2, 2, 0, 2, 0, 3, 3, 0, 3, 0, 0, 0, 2, 0, 0, 0, 1, 0, 2, 0, 5, 3, 3, 2, 0, 0, 0, 2, 2, 1, 0, 1, 0, 0, 0, 1, 0, 1, 0, 3, 0, 1, 1, 1, 3, 2, 1, 0, 0, 2, 0, 4, 4, 4, 0, 0, 0, 0, 0, 0, 0, 0, 4, 0, 3, 1, 0, 0, 2, 2, 0, 0, 0, 0, 4, 0, 0, 0, 3, 3, 0, 0, 0, 3, 0, 0, 0, 0, 0, 0, 0, 0, 0, 3, 0, 0, 3, 3, 4, 3, 0, 5, 4, 4, 0, 2, 0, 0, 2, 0, 0, 0, 0, 0, 0, 0, 3, 3, 0, 5, 3, 3, 0, 0, 0, 0, 0, 0, 0, 0, 3, 2, 2, 0, 4, 3, 0, 0, 1, 0, 0, 3, 0, 5, 4, 0, 0, 3, 3, 0, 0, 4, 0, 2, 0, 2, 0, 2, 0, 0, 1, 0, 1, 0, 5, 0, 0, 1, 0, 0, 0, 3, 0, 4, 2, 0, 5, 0, 4, 4, 4, 4, 1, 1, 0, 0, 0, 0, 2, 0, 0, 4, 3, 0, 2, 1, 0, 0, 0, 3, 5, 0, 0, 3, 0, 0, 0, 0, 0
 |0, 10, 10, 5, 0, 0, 6, 0, 4, 0, 3, 3, 0, 8, 5, 0, 0, 0, 0, 0, 3, 0, 0, 3, 8, 0, 0, 4, 0, 3, 5, 3, 0, 0, 5, 3, 0, 5, 0, 0, 0, 6, 7, 0, 7, 1, 0, 1, 8, 0, 0, 9, 8, 0, 0, 5, 0, 10, 9, 0, 0, 3, 0, 0, 1, 1, 7, 7, 3, 0, 0, 4, 9, 8, 0, 4, 2, 0, 9, 7, 0, 0, 1, 0, 6, 5, 6, 0, 3, 0, 6, 0, 3, 0, 0, 6, 3, 0, 0, 6, 2, 0, 0, 0, 0, 0, 3, 3, 4, 4, 3, 0, 5, 0, 0, 0, 6, 0, 0, 0, 0, 5, 0, 0, 1, 0, 6, 5, 0, 5, 0, 0, 0, 8, 0, 0, 0, 1, 8, 7, 0, 0, 7, 6, 0, 4, 3, 0, 7, 6, 7, 0, 0, 0, 6, 0, 8, 4, 0, 0, 0, 3, 8, 0, 0, 4, 0, 0, 10, 0, 10, 0, 4, 0, 0, 4, 0, 5, 0, 0, 3, 0, 2, 0, 1, 1, 4, 3, 2, 6, 0, 4, 0, 0, 0, 5, 0, 0, 8, 8, 5, 3, 0, 2, 8, 0, 0, 9, 6, 5, 3, 3, 2, 7, 6, 5, 6, 0, 5, 8, 6, 0, 9, 0, 9, 10, 0, 0, 2, 0, 0, 9, 7, 6, 0, 4, 3, 5, 3, 0, 8, 0, 0, 7, 6, 0, 7, 7, 6, 6, 0, 0, 0, 0, 0, 0, 0, 4, 9, 0, 6, 7, 0, 4, 8, 0, 2, 6, 0, 0, 0, 8, 7, 0, 6, 6, 0, 4, 0, 0, 0, 0, 0, 4, 0, 10, 9, 7, 6, 0, 0, 5, 0, 2, 0, 8, 0, 10, 0, 9
 |3, 0, 0, 0, 5, 4, 0, 6, 0, 9, 0, 0, 8, 0, 0, 9, 8, 7, 8, 7, 0, 7, 5, 0, 0, 10, 10, 0, 5, 0, 0, 0, 4, 10, 0, 0, 9, 0, 5, 6, 4, 0, 0, 4, 0, 0, 4, 0, 0, 8, 8, 0, 0, 7, 4, 0, 1, 0, 0, 2, 7, 0, 2, 6, 0, 0, 0, 0, 0, 5, 4, 0, 0, 0, 5, 0, 0, 4, 0, 0, 5, 10, 0, 5, 0, 0, 0, 8, 0, 2, 0, 5, 0, 4, 4, 0, 0, 5, 5, 0, 0, 4, 7, 6, 4, 8, 0, 0, 0, 0, 0, 9, 0, 7, 8, 4, 0, 2, 2, 1, 6, 0, 3, 9, 0, 5, 0, 0, 2, 0, 5, 3, 3, 0, 2, 3, 3, 0, 0, 0, 3, 6, 0, 0, 7, 0, 0, 7, 0, 0, 0, 3, 2, 6, 0, 4, 0, 0, 3, 8, 6, 0, 0, 3, 3, 0, 9, 8, 0, 5, 0, 10, 0, 7, 9, 0, 3, 0, 4, 2, 0, 3, 0, 9, 0, 0, 0, 0, 0, 0, 4, 0, 7, 3, 2, 0, 5, 3, 0, 0, 0, 0, 7, 0, 0, 5, 4, 0, 0, 0, 0, 0, 0, 0, 0, 0, 0, 6, 0, 0, 0, 5, 0, 7, 0, 0, 2, 2, 0, 5, 5, 0, 0, 0, 1, 0, 0, 0, 0, 2, 0, 6, 6, 0, 0, 2, 0, 0, 0, 0, 6, 5, 6, 5, 4, 9, 6, 0, 0, 5, 0, 0, 8, 0, 0, 4, 0, 0, 2, 2, 9, 0, 0, 7, 0, 0, 10, 0, 10, 5, 4, 4, 7, 0, 5, 0, 0, 0, 0, 3, 2, 0, 4, 0, 8, 0, 5, 0, 9, 0|];